c Arquivo convertido de cubic_300.txt
p edge 300 450
e 0 47
e 0 71
e 0 285
e 1 45
e 1 146
e 1 158
e 2 16
e 2 136
e 2 168
e 3 31
e 3 53
e 3 260
e 4 132
e 4 202
e 4 229
e 5 36
e 5 119
e 5 270
e 6 202
e 6 268
e 6 283
e 7 52
e 7 199
e 7 232
e 8 22
e 8 122
e 8 196
e 9 116
e 9 236
e 9 240
e 10 57
e 10 180
e 10 188
e 11 36
e 11 135
e 11 294
e 12 49
e 12 257
e 12 277
e 13 103
e 13 122
e 13 252
e 14 58
e 14 63
e 14 245
e 15 47
e 15 64
e 15 119
e 16 34
e 16 181
e 17 137
e 17 251
e 17 261
e 18 178
e 18 259
e 18 297
e 19 26
e 19 126
e 19 225
e 20 117
e 20 192
e 20 235
e 21 190
e 21 213
e 21 298
e 22 99
e 22 203
e 23 85
e 23 87
e 23 256
e 24 90
e 24 124
e 24 222
e 25 56
e 25 144
e 25 157
e 26 31
e 26 247
e 27 31
e 27 167
e 27 172
e 28 102
e 28 253
e 28 297
e 29 90
e 29 144
e 29 253
e 30 151
e 30 217
e 30 295
e 32 35
e 32 199
e 32 254
e 33 132
e 33 149
e 33 230
e 34 120
e 34 125
e 35 48
e 35 112
e 36 72
e 37 100
e 37 209
e 37 241
e 38 46
e 38 113
e 38 281
e 39 154
e 39 168
e 39 249
e 40 65
e 40 169
e 40 197
e 41 137
e 41 148
e 41 211
e 42 149
e 42 224
e 42 281
e 43 98
e 43 102
e 43 186
e 44 71
e 44 267
e 44 290
e 45 67
e 45 270
e 46 243
e 46 272
e 47 129
e 48 175
e 48 209
e 49 170
e 49 230
e 50 92
e 50 250
e 50 260
e 51 107
e 51 114
e 51 166
e 52 164
e 52 228
e 53 63
e 53 241
e 54 91
e 54 175
e 54 287
e 55 98
e 55 110
e 55 142
e 56 145
e 56 177
e 57 133
e 57 173
e 58 194
e 58 225
e 59 64
e 59 143
e 59 233
e 60 82
e 60 129
e 60 159
e 61 140
e 61 278
e 61 299
e 62 221
e 62 272
e 62 292
e 63 176
e 64 83
e 65 248
e 65 299
e 66 134
e 66 148
e 66 232
e 67 134
e 67 284
e 68 172
e 68 227
e 68 244
e 69 70
e 69 72
e 69 101
e 70 109
e 70 237
e 71 296
e 72 170
e 73 89
e 73 196
e 73 242
e 74 126
e 74 247
e 74 282
e 75 108
e 75 151
e 75 222
e 76 111
e 76 152
e 76 162
e 77 78
e 77 123
e 77 159
e 78 184
e 78 265
e 79 100
e 79 141
e 79 264
e 80 95
e 80 241
e 80 271
e 81 113
e 81 177
e 81 238
e 82 227
e 82 295
e 83 169
e 83 191
e 84 117
e 84 130
e 84 244
e 85 218
e 85 279
e 86 122
e 86 125
e 86 128
e 87 289
e 87 290
e 88 133
e 88 149
e 88 200
e 89 93
e 89 106
e 90 153
e 91 233
e 91 293
e 92 198
e 92 294
e 93 158
e 93 222
e 94 127
e 94 266
e 94 281
e 95 171
e 95 223
e 96 115
e 96 181
e 96 218
e 97 184
e 97 197
e 97 285
e 98 261
e 99 131
e 99 208
e 100 195
e 101 158
e 101 278
e 102 274
e 103 142
e 103 186
e 104 147
e 104 246
e 104 254
e 105 187
e 105 193
e 105 252
e 106 216
e 106 250
e 107 204
e 107 231
e 108 192
e 108 204
e 109 116
e 109 275
e 110 135
e 110 171
e 111 115
e 111 254
e 112 114
e 112 279
e 113 272
e 114 138
e 115 124
e 116 180
e 117 203
e 118 219
e 118 261
e 118 264
e 119 123
e 120 246
e 120 257
e 121 130
e 121 157
e 121 274
e 123 228
e 124 280
e 125 139
e 126 293
e 127 138
e 127 262
e 128 214
e 128 270
e 129 162
e 130 257
e 131 243
e 131 256
e 132 276
e 133 200
e 134 283
e 135 252
e 136 208
e 136 231
e 137 238
e 138 143
e 139 174
e 139 179
e 140 183
e 140 191
e 141 179
e 141 248
e 142 228
e 143 269
e 144 172
e 145 213
e 145 238
e 146 198
e 146 249
e 147 205
e 147 229
e 148 291
e 150 191
e 150 197
e 150 231
e 151 288
e 152 177
e 152 284
e 153 242
e 153 277
e 154 160
e 154 263
e 155 161
e 155 182
e 155 240
e 156 201
e 156 235
e 156 264
e 157 182
e 159 279
e 160 234
e 160 240
e 161 216
e 161 217
e 162 163
e 163 165
e 163 214
e 164 251
e 164 268
e 165 189
e 165 215
e 166 185
e 166 297
e 167 234
e 167 286
e 168 255
e 169 292
e 170 220
e 171 206
e 173 193
e 173 210
e 174 190
e 174 245
e 175 266
e 176 202
e 176 291
e 178 247
e 178 258
e 179 288
e 180 187
e 181 246
e 182 215
e 183 224
e 183 242
e 184 289
e 185 233
e 185 259
e 186 212
e 187 218
e 188 214
e 188 262
e 189 195
e 189 215
e 190 289
e 192 210
e 193 217
e 194 201
e 194 278
e 195 219
e 196 280
e 198 256
e 199 286
e 200 207
e 201 263
e 203 275
e 204 234
e 205 245
e 205 267
e 206 207
e 206 239
e 207 255
e 208 244
e 209 298
e 210 295
e 211 220
e 211 265
e 212 271
e 212 292
e 213 223
e 216 226
e 219 283
e 220 269
e 221 224
e 221 291
e 223 262
e 225 227
e 226 269
e 226 276
e 229 259
e 230 277
e 232 258
e 235 239
e 236 243
e 236 271
e 237 249
e 237 290
e 239 285
e 248 280
e 250 251
e 253 263
e 255 273
e 258 273
e 260 273
e 265 287
e 266 282
e 267 296
e 268 287
e 274 296
e 275 299
e 276 282
e 284 293
e 286 294
e 288 298
